c t pmc
p cnf 146 228
c p show 1 2 3 4 5 6 7 8 0
-3 -1 0
-1 -3 0
-7 -5 0
-5 -7 0
-4 -2 0
-2 -4 0
-8 -6 0
-6 -8 0
-5 -1 0
-1 -5 0
-7 -3 0
-3 -7 0
-6 -2 0
-2 -6 0
-8 -4 0
-4 -8 0
-1 1 9 0
-1 3 10 0
-1 5 11 0
-1 7 12 0
-3 1 13 0
-3 3 14 0
-3 5 15 0
-3 7 16 0
-5 1 17 0
-5 3 18 0
-5 5 19 0
-5 7 20 0
-7 1 21 0
-7 3 22 0
-7 5 23 0
-7 7 24 0
-2 2 9 0
-2 4 10 0
-2 6 11 0
-2 8 12 0
-4 2 13 0
-4 4 14 0
-4 6 15 0
-4 8 16 0
-6 2 17 0
-6 4 18 0
-6 6 19 0
-6 8 20 0
-8 2 21 0
-8 4 22 0
-8 6 23 0
-8 8 24 0
-1 -1 25 0
-1 -3 26 0
-5 -1 27 0
-5 -3 28 0
-3 -5 25 0
-3 -7 26 0
-7 -5 27 0
-7 -7 28 0
-1 -2 29 0
-1 -4 30 0
-5 -2 31 0
-5 -4 32 0
-3 -6 29 0
-3 -8 30 0
-7 -6 31 0
-7 -8 32 0
-2 -1 33 0
-2 -3 34 0
-6 -1 35 0
-6 -3 36 0
-4 -5 33 0
-4 -7 34 0
-8 -5 35 0
-8 -7 36 0
-2 -2 37 0
-2 -4 38 0
-6 -2 39 0
-6 -4 40 0
-4 -6 37 0
-4 -8 38 0
-8 -6 39 0
-8 -8 40 0
-1 -1 41 0
-3 -1 42 0
-5 -3 41 0
-7 -3 42 0
-1 -5 43 0
-3 -5 44 0
-5 -7 43 0
-7 -7 44 0
-1 -2 45 0
-3 -2 46 0
-5 -4 45 0
-7 -4 46 0
-1 -6 47 0
-3 -6 48 0
-5 -8 47 0
-7 -8 48 0
-2 -1 49 0
-4 -1 50 0
-6 -3 49 0
-8 -3 50 0
-2 -5 51 0
-4 -5 52 0
-6 -7 51 0
-8 -7 52 0
-2 -2 53 0
-4 -2 54 0
-6 -4 53 0
-8 -4 54 0
-2 -6 55 0
-4 -6 56 0
-6 -8 55 0
-8 -8 56 0
-9 -25 -41 0
-9 -26 -42 0
-9 -27 -43 0
-9 -28 -44 0
-10 -29 -41 0
-10 -30 -42 0
-10 -31 -43 0
-10 -32 -44 0
-11 -25 -45 0
-11 -26 -46 0
-11 -27 -47 0
-11 -28 -48 0
-12 -29 -45 0
-12 -30 -46 0
-12 -31 -47 0
-12 -32 -48 0
-13 -25 -49 0
-13 -26 -50 0
-13 -27 -51 0
-13 -28 -52 0
-14 -29 -49 0
-14 -30 -50 0
-14 -31 -51 0
-14 -32 -52 0
-15 -25 -53 0
-15 -26 -54 0
-15 -27 -55 0
-15 -28 -56 0
-16 -29 -53 0
-16 -30 -54 0
-16 -31 -55 0
-16 -32 -56 0
-17 -33 -41 0
-17 -34 -42 0
-17 -35 -43 0
-17 -36 -44 0
-18 -37 -41 0
-18 -38 -42 0
-18 -39 -43 0
-18 -40 -44 0
-19 -33 -45 0
-19 -34 -46 0
-19 -35 -47 0
-19 -36 -48 0
-20 -37 -45 0
-20 -38 -46 0
-20 -39 -47 0
-20 -40 -48 0
-21 -33 -49 0
-21 -34 -50 0
-21 -35 -51 0
-21 -36 -52 0
-22 -37 -49 0
-22 -38 -50 0
-22 -39 -51 0
-22 -40 -52 0
-23 -33 -53 0
-23 -34 -54 0
-23 -35 -55 0
-23 -36 -56 0
-24 -37 -53 0
-24 -38 -54 0
-24 -39 -55 0
-24 -40 -56 0
1 2 0
-1 -2 0
3 4 0
-3 -4 0
5 6 0
-5 -6 0
7 8 0
-7 -8 0
-136 -1 7 0
-136 -2 0
-137 -1 8 0
-137 -2 7 0
136 137 0
136 138 0
-138 139 140 0
-138 139 141 0
-141 142 143 0
-141 142 144 0
-144 145 146 0
-139 -3 5 0
-139 -4 0
-140 -3 6 0
-140 -4 5 0
136 137 0
136 138 0
-138 139 140 0
-138 139 141 0
-141 142 143 0
-141 142 144 0
-144 145 146 0
-142 -5 3 0
-142 -6 0
-143 -5 4 0
-143 -6 3 0
136 137 0
136 138 0
-138 139 140 0
-138 139 141 0
-141 142 143 0
-141 142 144 0
-144 145 146 0
-145 -7 1 0
-145 -8 0
-146 -7 2 0
-146 -8 1 0
136 137 0
136 138 0
-138 139 140 0
-138 139 141 0
-141 142 143 0
-141 142 144 0
-144 145 146 0
